7
    0   22   40   15   35   20   30
   22    0    7   14   15   20    8
   40    7    0   19   14   22    5
   15   14   19    0   12   14    9
   35   15   14   12    0    8    7
   20   20   22   14    8    0   16
   30    8    5    9    7   16    0
